benchmarks/VRPTW/TSPTW/solution/n80w60.001.txt.solution
1 15 41 79 9 42 72 10 19 11 46 17 65 80 34 63 30 66 25 32 43 37 57 35 49 52 39 75 22 8 68 64 31 77 20 60 6 56 62 18 54 48 74 5 45 71 58 2 70 50 53 40 33 29 59 27 26 73 67 61 55 23 4 76 44 13 21 16 12 69 78 38 14 47 24 28 7 36 51 81 3 
554
